p cnf 215 377               
-3 26 0
-1 25 0
-2 25 0
1 2 -25 0
-25 26 0
3 25 -26 0
26 85 0
-6 28 0
-4 27 0
-5 27 0
4 5 -27 0
-27 28 0
6 27 -28 0
28 37 0
26 37 0
-28 -26 -37 0
37 -47 0
-26 38 0
-28 38 0
26 28 -38 0
38 39 0
-9 30 0
-7 29 0
-8 29 0
7 8 -29 0
-29 30 0
9 29 -30 0
30 39 0
-38 -30 -39 0
39 -47 0
-30 40 0
-38 40 0
30 38 -40 0
40 41 0
-12 32 0
-10 31 0
-11 31 0
10 11 -31 0
-31 32 0
12 31 -32 0
32 41 0
-40 -32 -41 0
41 -47 0
-32 42 0
-40 42 0
32 40 -42 0
42 43 0
-15 34 0
-13 33 0
-14 33 0
13 14 -33 0
-33 34 0
15 33 -34 0
34 43 0
-42 -34 -43 0
43 -47 0
-34 44 0
-42 44 0
34 42 -44 0
44 45 0
-18 36 0
-16 35 0
-17 35 0
16 17 -35 0
-35 36 0
18 35 -36 0
36 45 0
-44 -36 -45 0
45 -47 0
-36 46 0
-44 46 0
36 44 -46 0
46 -47 0
-37 -39 -41 -43 -45 -46 47 0
-47 -26 79 0
47 -19 79 0
-26 -19 79 0
-79 85 0
28 86 0
-47 -28 80 0
47 -20 80 0
-28 -20 80 0
-80 86 0
30 87 0
-47 -30 81 0
47 -21 81 0
-30 -21 81 0
-81 87 0
32 88 0
-47 -32 82 0
47 -22 82 0
-32 -22 82 0
-82 88 0
34 89 0
-47 -34 83 0
47 -23 83 0
-34 -23 83 0
-83 89 0
36 90 0
-47 -36 84 0
47 -24 84 0
-36 -24 84 0
-84 90 0
-85 -86 -87 -88 -89 -90 91 0
-91 -92 0
47 -92 0
-17 61 0
-14 58 0
-11 55 0
-8 52 0
-2 49 0
-5 49 0
2 5 -49 0
-49 52 0
8 49 -52 0
-52 55 0
11 52 -55 0
-55 58 0
14 55 -58 0
-58 61 0
17 58 -61 0
-16 60 0
-13 57 0
-10 54 0
-7 51 0
-1 48 0
-4 48 0
1 4 -48 0
-48 51 0
7 48 -51 0
-51 54 0
10 51 -54 0
-54 57 0
13 54 -57 0
-57 60 0
16 57 -60 0
-61 -60 -63 0
63 -67 0
-60 64 0
-61 64 0
60 61 -64 0
-18 62 0
-15 59 0
-12 56 0
-9 53 0
-3 50 0
-6 50 0
3 6 -50 0
-50 53 0
9 50 -53 0
-53 56 0
12 53 -56 0
-56 59 0
15 56 -59 0
-59 62 0
18 59 -62 0
-64 -62 -65 0
65 -67 0
62 64 -66 0
66 -67 0
67 -92 0
-20 -19 -68 0
68 -78 0
-19 69 0
-20 69 0
19 20 -69 0
-69 -21 -70 0
70 -78 0
-21 71 0
-69 71 0
21 69 -71 0
-71 -22 -72 0
72 -78 0
-22 73 0
-71 73 0
22 71 -73 0
-73 -23 -74 0
74 -78 0
-23 75 0
-73 75 0
23 73 -75 0
-75 -24 -76 0
76 -78 0
24 75 -77 0
77 -78 0
78 -92 0
-1 2 -93 0
93 -115 0
-1 -2 94 0
1 2 94 0
-2 2 94 0
-4 5 -95 0
-94 95 -96 0
96 -115 0
-4 -5 97 0
4 5 97 0
-5 5 97 0
-94 -97 98 0
-7 8 -99 0
-98 99 -100 0
100 -115 0
-7 -8 101 0
7 8 101 0
-8 8 101 0
-98 -101 102 0
-10 11 -103 0
-102 103 -104 0
104 -115 0
-10 -11 105 0
10 11 105 0
-11 11 105 0
-102 -105 106 0
-13 14 -107 0
-106 107 -108 0
108 -115 0
-13 -14 109 0
13 14 109 0
-14 14 109 0
-106 -109 110 0
-16 17 -111 0
-110 111 -112 0
112 -115 0
115 -214 0
-2 3 -116 0
116 -138 0
-2 -3 117 0
2 3 117 0
-3 3 117 0
-5 6 -118 0
-117 118 -119 0
119 -138 0
-5 -6 120 0
5 6 120 0
-6 6 120 0
-117 -120 121 0
-8 9 -122 0
-121 122 -123 0
123 -138 0
-8 -9 124 0
8 9 124 0
-9 9 124 0
-121 -124 125 0
-11 12 -126 0
-125 126 -127 0
127 -138 0
-11 -12 128 0
11 12 128 0
-12 12 128 0
-125 -128 129 0
-14 15 -130 0
-129 130 -131 0
131 -138 0
-14 -15 132 0
14 15 132 0
-15 15 132 0
-129 -132 133 0
-17 18 -134 0
-133 134 -135 0
135 -138 0
138 -214 0
-19 20 -139 0
139 -153 0
-19 -20 140 0
19 20 140 0
-20 20 140 0
-1 4 -141 0
-140 141 -142 0
142 -153 0
-1 -4 143 0
1 4 143 0
-4 4 143 0
-140 -143 144 0
-2 5 -145 0
-144 145 -146 0
146 -153 0
-2 -5 147 0
2 5 147 0
-5 5 147 0
-144 -147 148 0
-3 6 -149 0
-148 149 -150 0
150 -153 0
153 -214 0
-20 21 -154 0
154 -168 0
-20 -21 155 0
20 21 155 0
-21 21 155 0
-4 7 -156 0
-155 156 -157 0
157 -168 0
-4 -7 158 0
4 7 158 0
-7 7 158 0
-155 -158 159 0
-5 8 -160 0
-159 160 -161 0
161 -168 0
-5 -8 162 0
5 8 162 0
-8 8 162 0
-159 -162 163 0
-6 9 -164 0
-163 164 -165 0
165 -168 0
168 -214 0
-21 22 -169 0
169 -183 0
-21 -22 170 0
21 22 170 0
-22 22 170 0
-7 10 -171 0
-170 171 -172 0
172 -183 0
-7 -10 173 0
7 10 173 0
-10 10 173 0
-170 -173 174 0
-8 11 -175 0
-174 175 -176 0
176 -183 0
-8 -11 177 0
8 11 177 0
-11 11 177 0
-174 -177 178 0
-9 12 -179 0
-178 179 -180 0
180 -183 0
183 -214 0
-22 23 -184 0
184 -198 0
-22 -23 185 0
22 23 185 0
-23 23 185 0
-10 13 -186 0
-185 186 -187 0
187 -198 0
-10 -13 188 0
10 13 188 0
-13 13 188 0
-185 -188 189 0
-11 14 -190 0
-189 190 -191 0
191 -198 0
-11 -14 192 0
11 14 192 0
-14 14 192 0
-189 -192 193 0
-12 15 -194 0
-193 194 -195 0
195 -198 0
198 -214 0
-23 24 -199 0
199 -213 0
-23 -24 200 0
23 24 200 0
-24 24 200 0
-13 16 -201 0
-200 201 -202 0
202 -213 0
-13 -16 203 0
13 16 203 0
-16 16 203 0
-200 -203 204 0
-14 17 -205 0
-204 205 -206 0
206 -213 0
-14 -17 207 0
14 17 207 0
-17 17 207 0
-204 -207 208 0
-15 18 -209 0
-208 209 -210 0
210 -213 0
213 -214 0
92 0
214 0
